NAME : rnd27_20.tsp
TYPE : TSP
DIMENSION : 20
EDGE_WEIGHT_TYPE : EUC_2D
NODE_COORD_SECTION
1 56 840
2 727 923
3 762 811
4 720 918
5 726 506
6 48 292
7 154 793
8 4 362
9 95 137
10 393 304
11 124 171
12 123 755
13 964 475
14 517 691
15 342 811
16 616 890
17 215 684
18 244 184
19 195 181
20 716 241
